47
75
60	1
59	1
58	1
57	1
56	2
55	1
54	4
53	1
52	3
50	2
49	2
48	3
46	1
45	2
44	6
43	1
42	2
41	1
40	4
39	3
38	2
37	2
36	2
35	1
34	1
33	1
31	1
30	2
29	1
28	4
27	1
23	4
21	1
20	4
19	4
18	4
17	3
16	2
15	4
14	2
13	2
12	2
11	3
10	1
9	1
8	2
7	1
